539,360
994,507
627,512
681,466
681,286
874,140
1066,345
681,286
269,107
464,833
406,681
898,833
406,681
575,512
1045,670
1117,723
858,59
713,199
425,489
575,512
667,318
598,150
681,-44
713,199
799,424
822,600
1066,467
